c This Formular is generated by mcnf
c
c    horn? no 
c    forced? no 
c    mixed sat? no 
c    clause length = 3 
c
p cnf 20  91 
 -15 -1 8 0
-12 -1 -7 0
1 12 13 0
-20 -16 -9 0
8 -1 10 0
-9 13 10 0
3 -18 7 0
8 -18 20 0
-7 -15 18 0
-12 -4 -6 0
-4 3 -11 0
8 -14 2 0
2 -17 -9 0
-15 -9 11 0
18 12 -7 0
18 -6 2 0
1 4 3 0
-11 -10 -18 0
15 13 2 0
-9 2 -14 0
-15 -3 -1 0
%
0

3 70 34 3 94 79 24 93 19 70 96 30 36 28 53 18 64 73 33 19
